
Log started (V11.0.0) Fri May 16 20:39:14 2008

Tried aggregator 1 time.
Reduced MIP has 250 rows, 10001 columns, and 20050 nonzeros.
Presolve time =    0.08 sec.
Clique table members: 200.
MIP emphasis: balance optimality and feasibility.
MIP search method: dynamic search.
Parallel mode: none, using 1 thread.
Root relaxation solution time =    0.53 sec.

        Nodes                                         Cuts/
   Node  Left     Objective  IInf  Best Integer     Best Node    ItCnt     Gap

*     0+    0                        22026.0000      400.5001      680   98.18%
*     0+    0                          402.0000      400.5001      680    0.37%
      0     0      401.0000    83      402.0000      Fract: 6      695    0.25%
      0     0      401.0000    83      402.0000     Covers: 2      701    0.25%
      0     0      401.0000    80      402.0000     Covers: 2      722    0.25%
      0     2      401.0000    80      402.0000      401.0000      722    0.25%
    100    51      401.0000    65      402.0000      401.0000     7941    0.25%
    200    87      401.0000    73      402.0000      401.0000    26680    0.25%
    300   147      401.0000    76      402.0000      401.0000    44527    0.25%
    400   143      401.0000    60      402.0000      401.0000    52517    0.25%
    500   175    infeasible            402.0000      401.0000    59573    0.25%
    600   175    infeasible            402.0000      401.0000    70467    0.25%
    700   162    infeasible            402.0000      401.0000    78773    0.25%
    800   188    infeasible            402.0000      401.0000    89083    0.25%
    900   244      401.0000    70      402.0000      401.0000   104299    0.25%
   1000   316    infeasible            402.0000      401.0000   111914    0.25%
Elapsed time =  52.09 sec. (tree size =  2.01 MB, solutions = 2)
   1100   396      401.0000    76      402.0000      401.0000   120802    0.25%
   1200   436    infeasible            402.0000      401.0000   141990    0.25%
   1300   422    infeasible            402.0000      401.0000   179945    0.25%
   1400   368      401.0000    83      402.0000      401.0000   233920    0.25%
   1500   450      401.0000    61      402.0000      401.0000   240372    0.25%
   1600   520      401.0642    39      402.0000      401.0000   252850    0.25%
   1700   430      401.0000   102      402.0000      401.0000   319616    0.25%
   1800   526      401.0000   105      402.0000      401.0000   325869    0.25%
   1900   472      401.0000   110      402.0000      401.0000   383934    0.25%
   2000   430    infeasible            402.0000      401.0000   429521    0.25%
Elapsed time = 141.58 sec. (tree size =  3.11 MB, solutions = 2)
   2100   330    infeasible            402.0000      401.0000   485575    0.25%
   2200   394    infeasible            402.0000      401.0000   505426    0.25%
   2300   294    infeasible            402.0000      401.0000   569121    0.25%
   2400   194    infeasible            402.0000      401.0000   632177    0.25%
   2500   112    infeasible            402.0000      401.0000   695941    0.25%
   2600    12    infeasible            402.0000      401.0000   759809    0.25%

Cover cuts applied:  252
Gomory fractional cuts applied:  3

Solution pool: 2 solutions saved.

MIP - Integer optimal solution:  Objective = 4.0200000000e+002
Solution time =  261.05 sec.  Iterations = 769321  Nodes = 2613


Incumbent solution
Variable Name           Solution Value
Cmax                        402.000000
X_1_37                        1.000000
X_2_23                        1.000000
X_3_19                        1.000000
X_4_27                        1.000000
X_5_8                         1.000000
X_6_44                        1.000000
X_7_47                        1.000000
X_8_22                        1.000000
X_9_23                        1.000000
X_10_9                        1.000000
X_11_42                       1.000000
X_12_18                       1.000000
X_13_22                       1.000000
X_14_4                        1.000000
X_15_10                       1.000000
X_16_34                       1.000000
X_17_44                       1.000000
X_18_20                       1.000000
X_19_39                       1.000000
X_20_33                       1.000000
X_21_32                       1.000000
X_22_30                       1.000000
X_23_31                       1.000000
X_24_6                        1.000000
X_25_29                       1.000000
X_26_28                       1.000000
X_27_45                       1.000000
X_28_14                       1.000000
X_29_44                       1.000000
X_30_14                       1.000000
X_31_6                        1.000000
X_32_21                       1.000000
X_33_41                       1.000000
X_34_16                       1.000000
X_35_11                       1.000000
X_36_15                       1.000000
X_37_46                       1.000000
X_38_42                       1.000000
X_39_46                       1.000000
X_40_8                        1.000000
X_41_38                       1.000000
X_42_32                       1.000000
X_43_19                       1.000000
X_44_45                       1.000000
X_45_30                       1.000000
X_46_46                       1.000000
X_47_44                       1.000000
X_48_14                       1.000000
X_49_30                       1.000000
X_50_45                       1.000000
X_51_36                       1.000000
X_52_49                       1.000000
X_53_31                       1.000000
X_54_19                       1.000000
X_55_41                       1.000000
X_56_5                        1.000000
X_57_39                       1.000000
X_58_48                       1.000000
X_59_4                        1.000000
X_60_50                       1.000000
X_61_37                       1.000000
X_62_49                       1.000000
X_63_2                        1.000000
X_64_43                       1.000000
X_65_34                       1.000000
X_66_32                       1.000000
X_67_24                       1.000000
X_68_27                       1.000000
X_69_32                       1.000000
X_70_20                       1.000000
X_71_26                       1.000000
X_72_8                        1.000000
X_73_48                       1.000000
X_74_10                       1.000000
X_75_18                       1.000000
X_76_34                       1.000000
X_77_20                       1.000000
X_78_21                       1.000000
X_79_18                       1.000000
X_80_5                        1.000000
X_81_12                       1.000000
X_82_33                       1.000000
X_83_15                       1.000000
X_84_29                       1.000000
X_85_41                       1.000000
X_86_42                       1.000000
X_87_23                       1.000000
X_88_40                       1.000000
X_89_35                       1.000000
X_90_29                       1.000000
X_91_33                       1.000000
X_92_11                       1.000000
X_93_36                       1.000000
X_94_37                       1.000000
X_95_25                       1.000000
X_96_22                       1.000000
X_97_1                        1.000000
X_98_40                       1.000000
X_99_17                       1.000000
X_100_39                      1.000000
X_101_11                      1.000000
X_102_28                      1.000000
X_103_13                      1.000000
X_104_5                       1.000000
X_105_26                      1.000000
X_106_47                      1.000000
X_107_21                      1.000000
X_108_30                      1.000000
X_109_12                      1.000000
X_110_43                      1.000000
X_111_8                       1.000000
X_112_50                      1.000000
X_113_50                      1.000000
X_114_13                      1.000000
X_115_29                      1.000000
X_116_34                      1.000000
X_117_3                       1.000000
X_118_37                      1.000000
X_119_16                      1.000000
X_120_38                      1.000000
X_121_2                       1.000000
X_122_38                      1.000000
X_123_23                      1.000000
X_124_15                      1.000000
X_125_27                      1.000000
X_126_4                       1.000000
X_127_25                      1.000000
X_128_3                       1.000000
X_129_6                       1.000000
X_130_9                       1.000000
X_131_24                      1.000000
X_132_49                      1.000000
X_133_40                      1.000000
X_134_5                       1.000000
X_135_35                      1.000000
X_136_35                      1.000000
X_137_42                      1.000000
X_138_16                      1.000000
X_139_46                      1.000000
X_140_3                       1.000000
X_141_28                      1.000000
X_142_36                      1.000000
X_143_17                      1.000000
X_144_26                      1.000000
X_145_9                       1.000000
X_146_2                       1.000000
X_147_12                      1.000000
X_148_22                      1.000000
X_149_19                      1.000000
X_150_49                      1.000000
X_151_1                       1.000000
X_152_7                       1.000000
X_153_24                      1.000000
X_154_45                      1.000000
X_155_3                       1.000000
X_156_24                      1.000000
X_157_39                      1.000000
X_158_38                      1.000000
X_159_48                      1.000000
X_160_35                      1.000000
X_161_13                      1.000000
X_162_25                      1.000000
X_163_1                       1.000000
X_164_7                       1.000000
X_165_47                      1.000000
X_166_13                      1.000000
X_167_18                      1.000000
X_168_11                      1.000000
X_169_14                      1.000000
X_170_12                      1.000000
X_171_40                      1.000000
X_172_41                      1.000000
X_173_48                      1.000000
X_174_20                      1.000000
X_175_36                      1.000000
X_176_33                      1.000000
X_177_6                       1.000000
X_178_16                      1.000000
X_179_17                      1.000000
X_180_10                      1.000000
X_181_47                      1.000000
X_182_4                       1.000000
X_183_25                      1.000000
X_184_2                       1.000000
X_185_21                      1.000000
X_186_7                       1.000000
X_187_10                      1.000000
X_188_7                       1.000000
X_189_27                      1.000000
X_190_15                      1.000000
X_191_26                      1.000000
X_192_31                      1.000000
X_193_43                      1.000000
X_194_43                      1.000000
X_195_50                      1.000000
X_196_31                      1.000000
X_197_28                      1.000000
X_198_9                       1.000000
X_199_17                      1.000000
X_200_1                       1.000000
All other variables in the range 1-10001 are 0.
